# Examplary LAMMPS input script for Cu_FF simulation with polarizable electrode model 
#(cite: dx.doi.org/10.1021/jp210252g | J. Phys. Chem. C 2012)

#########################initialization ######################
units			real
atom_style	full
boundary p p f
######################## input variables #####################
variable	T  equal 298.15 

variable        dt equal 0.5
variable        dtNVT equal 100*${dt}
variable rand equal 75312

variable        trun equal 2000000
variable        tdump equal 100

variable        dthermo equal 100

######################## Pairstyle ##########################
pair_style electrode 12.0
kspace_style pppm/electrode 1e-5
kspace_modify slab 12.0

###################### Read data and pair coeff #############
bond_style      harmonic
angle_style     harmonic
dihedral_style  harmonic
improper_style  cvff
special_bonds   lj/coul 0.0 0.0 0.5

read_data bulk_equilibrated.data


####################### Neighboure ############################

neighbor	2.0 bin
neigh_modify every 1 delay 0 check yes

############################ log & Thermo ##############################
timestep ${dt}

thermo_style	custom step temp vol pe etotal evdwl ecoul elong
thermo          ${dthermo}
log Cu_FF.log

######################### Dump ###############################

dump	        xDump all custom ${tdump} Cu_FF_min.dump id type mol xu yu zu vx vy vz
dump_modify xDump sort id

############################ Min ####################################

minimize        1.0e-4 1.0e-6 10000 100000
velocity     	all create $T ${rand} dist gaussian

undump xDump

fix SHAKE all shake 0.00001 20 0 t 14 15

############ Equilibration #####################

fix nvt all nvt temp ${T} ${T} ${dtNVT}

######################### Dump 1 ###############################
dump	        xDump all custom ${tdump} Cu_FF_run.dump id type mol xu yu zu vx vy vz
dump_modify xDump sort id

run ${trun}
undump xDump
write_restart   restart.*.equil

quit

